sifdecoder -A pc64.lnx.gfo -st   STATIC3

 Problem name: STATIC3

 Double precision version will be formed

 The objective function uses 1 linear group
 The objective function uses 1 nonlinear group
 
 There are 96 linear equality constraints
 
 There are 290 free variables
 There are 144 variables bounded only from below 
 
 
 File successfully decoded
 CUTEST: tools (double precision version) compiled successfully
 CUTEst: ipopt (double precision version) compiled successfully

******************************************************************************
This program contains Ipopt, a library for large-scale nonlinear optimization.
 Ipopt is released as open source code under the Eclipse Public License (EPL).
         For more information visit http://projects.coin-or.org/Ipopt
******************************************************************************

This is Ipopt version trunk, running with linear solver ma57.

Number of nonzeros in equality constraint Jacobian...:      496
Number of nonzeros in inequality constraint Jacobian.:        0
Number of nonzeros in Lagrangian Hessian.............:     1014

Total number of variables............................:      434
                     variables with only lower bounds:      144
                variables with lower and upper bounds:        0
                     variables with only upper bounds:        0
Total number of equality constraints.................:       96
Total number of inequality constraints...............:        0
        inequality constraints with only lower bounds:        0
   inequality constraints with lower and upper bounds:        0
        inequality constraints with only upper bounds:        0

iter    objective    inf_pr   inf_du lg(mu)  ||d||  lg(rg) alpha_du alpha_pr  ls
   0  0.0000000e+00 1.00e-02 1.00e+02  -1.0 0.00e+00    -  0.00e+00 0.00e+00   0
   1 -2.6169178e+02 3.47e-18 1.05e+02  -1.0 1.05e-02   4.0 1.00e+00 1.00e+00f  1
   2 -1.1325683e+03 4.34e-18 1.21e+02  -1.0 3.63e-02   3.5 1.00e+00 1.00e+00f  1
   3 -5.4201118e+03 5.20e-18 2.04e+02  -1.0 1.84e-01   3.0 1.00e+00 1.00e+00f  1
   4 -7.8202669e+03 6.94e-18 2.41e+02  -1.0 8.13e-02   3.5 1.00e+00 1.00e+00f  1
   5 -8.8747713e+03 6.94e-18 2.56e+02  -1.0 3.23e-02   3.9 1.00e+00 1.00e+00f  1
   6 -1.3294222e+04 6.94e-18 3.09e+02  -1.0 1.17e-01   3.4 1.00e+00 1.00e+00f  1
   7 -1.5347081e+04 6.94e-18 3.30e+02  -1.0 4.70e-02   3.8 1.00e+00 1.00e+00f  1
   8 -2.5213122e+04 6.94e-18 4.09e+02  -1.0 1.75e-01   3.4 1.00e+00 1.00e+00f  1
   9 -3.0192270e+04 6.94e-18 4.42e+02  -1.0 7.07e-02   3.8 1.00e+00 1.00e+00f  1
iter    objective    inf_pr   inf_du lg(mu)  ||d||  lg(rg) alpha_du alpha_pr  ls
  10 -6.0289726e+04 6.94e-18 7.56e+02  -1.0 3.64e-01   3.3 1.00e+00 1.00e+00f  1
  11 -7.7532749e+04 1.04e-17 9.26e+02  -1.0 1.67e-01   3.7 1.00e+00 1.00e+00f  1
  12 -2.2611940e+05 1.21e-17 2.04e+03  -1.0 1.10e+00   3.3 1.00e+00 1.00e+00f  1
  13 -3.2583676e+05 1.39e-17 2.57e+03  -1.0 5.21e-01   3.7 1.00e+00 1.00e+00f  1
  14 -1.6547689e+06 1.08e-17 6.65e+03  -1.0 4.04e+00   3.2 1.00e+00 1.00e+00f  1
  15 -2.6921856e+06 1.04e-17 8.63e+03  -1.0 1.97e+00   3.6 1.00e+00 1.00e+00f  1
  16 -2.5180493e+07 1.73e-17 2.79e+04  -1.0 1.91e+01   3.2 1.00e+00 1.00e+00f  1
  17 -4.5351430e+07 2.60e-17 3.76e+04  -1.0 9.64e+00   3.6 1.00e+00 1.00e+00f  1
  18 -8.7302364e+08 2.60e-17 1.68e+05  -1.0 1.30e+02   3.1 1.00e+00 1.00e+00f  1
  19 -1.7327224e+09 1.91e-17 2.38e+05  -1.0 6.86e+01   3.5 1.00e+00 1.00e+00f  1
iter    objective    inf_pr   inf_du lg(mu)  ||d||  lg(rg) alpha_du alpha_pr  ls
  20 -1.0748398e+11 1.39e-17 1.89e+06  -1.0 1.64e+03   3.1 1.00e+00 1.00e+00f  1
  21 -2.3772114e+11 3.30e-17 2.81e+06  -1.0 9.13e+02   3.5 1.00e+00 1.00e+00f  1
  22 -8.8558208e+14 2.08e-17 1.72e+08  -1.0 1.68e+05   3.0 1.00e+00 1.00e+00f  1
  23 -2.2232847e+15 1.82e-17 2.73e+08  -1.0 9.97e+04   3.4 1.00e+00 1.00e+00f  1
  24 -2.9944049e+15 2.78e-17 3.17e+08  -1.0 4.34e+04   3.9 1.00e+00 1.00e+00f  1
  25 -8.7492970e+15 2.78e-17 5.41e+08  -1.0 2.22e+05   3.4 1.00e+00 1.00e+00f  1
  26 -1.2271450e+16 2.08e-17 6.41e+08  -1.0 9.88e+04   3.8 1.00e+00 1.00e+00f  1
  27 -4.3172532e+16 2.08e-17 1.20e+09  -1.0 5.56e+05   3.3 1.00e+00 1.00e+00f  1
  28 -6.3441678e+16 2.82e-17 1.46e+09  -1.0 2.53e+05   3.8 1.00e+00 1.00e+00f  1
  29 -2.8143592e+17 2.78e-17 3.07e+09  -1.0 1.60e+06   3.3 1.00e+00 1.00e+00f  1
iter    objective    inf_pr   inf_du lg(mu)  ||d||  lg(rg) alpha_du alpha_pr  ls
  30 -4.3641563e+17 2.78e-17 3.82e+09  -1.0 7.46e+05   3.7 1.00e+00 1.00e+00f  1
  31 -2.6071821e+18 2.95e-17 9.34e+09  -1.0 5.47e+06   3.2 1.00e+00 1.00e+00f  1
  32 -4.3026704e+18 3.64e-17 1.20e+10  -1.0 2.63e+06   3.7 1.00e+00 1.00e+00f  1
  33 -3.8277094e+19 2.78e-17 3.58e+10  -1.0 2.36e+07   3.2 1.00e+00 1.00e+00f  1
  34 -6.7916331e+19 2.78e-17 4.77e+10  -1.0 1.18e+07   3.6 1.00e+00 1.00e+00f  1
  35 -1.0679356e+21 2.95e-17 1.89e+11  -1.0 1.40e+08   3.1 1.00e+00 1.00e+00f  1
  36 -2.0625336e+21 5.38e-17 2.63e+11  -1.0 7.30e+07   3.6 1.00e+00 1.00e+00f  1
  37 -8.1888373e+22 3.82e-17 1.66e+12  -1.0 1.38e+09   3.1 1.00e+00 1.00e+00f  1
  38 -1.7476616e+23 3.86e-17 2.42e+12  -1.0 7.56e+08   3.5 1.00e+00 1.00e+00f  1
  39 -6.0962454e+25 2.78e-17 4.52e+13  -1.0 4.23e+10   3.0 1.00e+00 1.00e+00f  1
iter    objective    inf_pr   inf_du lg(mu)  ||d||  lg(rg) alpha_du alpha_pr  ls
  40 -1.4649995e+26 3.47e-17 7.00e+13  -1.0 2.46e+10   3.5 1.00e+00 1.00e+00f  1
  41 -1.9493736e+26 4.16e-17 8.08e+13  -1.0 1.06e+10   3.9 1.00e+00 1.00e+00f  1
  42 -5.4020770e+26 5.55e-17 1.34e+14  -1.0 5.32e+10   3.4 1.00e+00 1.00e+00f  1
  43 -7.4722204e+26 2.78e-17 1.58e+14  -1.0 2.35e+10   3.8 1.00e+00 1.00e+00f  1
  44 -2.4629646e+27 2.78e-17 2.87e+14  -1.0 1.28e+11   3.4 1.00e+00 1.00e+00f  1
  45 -3.5618901e+27 2.78e-17 3.45e+14  -1.0 5.76e+10   3.8 1.00e+00 1.00e+00f  1
  46 -1.4557270e+28 3.08e-17 6.98e+14  -1.0 3.49e+11   3.3 1.00e+00 1.00e+00f  1
  47 -2.2160499e+28 2.78e-17 8.61e+14  -1.0 1.62e+11   3.7 1.00e+00 1.00e+00f  1
  48 -1.1902818e+29 3.90e-17 2.00e+15  -1.0 1.12e+12   3.2 1.00e+00 1.00e+00f  1
  49 -1.9227103e+29 4.16e-17 2.54e+15  -1.0 5.36e+11   3.7 1.00e+00 1.00e+00f  1
iter    objective    inf_pr   inf_du lg(mu)  ||d||  lg(rg) alpha_du alpha_pr  ls
  50 -1.4801196e+30 2.78e-17 7.04e+15  -1.0 4.46e+12   3.2 1.00e+00 1.00e+00f  1
  51 -2.5614730e+30 2.78e-17 9.26e+15  -1.0 2.20e+12   3.6 1.00e+00 1.00e+00f  1
  52 -3.2561940e+31 3.99e-17 3.30e+16  -1.0 2.35e+13   3.1 1.00e+00 1.00e+00f  1
  53 -6.1073654e+31 3.60e-17 4.52e+16  -1.0 1.21e+13   3.6 1.00e+00 1.00e+00f  1
  54 -1.6823712e+33 8.33e-17 2.37e+17  -1.0 1.90e+14   3.1 1.00e+00 1.00e+00f  1
  55 -3.4685099e+33 4.34e-17 3.41e+17  -1.0 1.02e+14   3.5 1.00e+00 1.00e+00f  1
  56 -4.3448765e+35 2.78e-17 3.81e+18  -1.0 3.44e+15   3.0 1.00e+00 1.00e+00f  1
  57 -1.0019795e+36 3.64e-17 5.79e+18  -1.0 1.96e+15   3.5 1.00e+00 1.00e+00f  1
  58 -1.3179111e+36 4.86e-17 6.64e+18  -1.0 8.42e+14   3.9 1.00e+00 1.00e+00f  1
  59 -3.4752068e+36 5.55e-17 1.08e+19  -1.0 4.10e+15   3.4 1.00e+00 1.00e+00f  1
iter    objective    inf_pr   inf_du lg(mu)  ||d||  lg(rg) alpha_du alpha_pr  ls
  60 -4.7435359e+36 5.55e-17 1.26e+19  -1.0 1.80e+15   3.8 1.00e+00 1.00e+00f  1
  61 -1.4713562e+37 2.78e-17 2.22e+19  -1.0 9.50e+15   3.4 1.00e+00 1.00e+00f  1
  62 -2.0956036e+37 4.16e-17 2.65e+19  -1.0 4.25e+15   3.8 1.00e+00 1.00e+00f  1
  63 -7.9390978e+37 2.78e-17 5.16e+19  -1.0 2.48e+16   3.3 1.00e+00 1.00e+00f  1
  64 -1.1874670e+38 5.55e-17 6.31e+19  -1.0 1.14e+16   3.7 1.00e+00 1.00e+00f  1
  65 -3.1020498e+38 2.78e-17 1.02e+20  -1.0 7.54e+16   3.3 1.00e+00 5.10e-01f  1
  66 -4.9096952e+38 2.78e-17 1.28e+20  -1.0 2.60e+16   3.7 1.00e+00 1.00e+00f  1
  67 -3.3189514e+39 5.55e-17 3.33e+20  -1.0 2.03e+17   3.2 1.26e-01 1.00e+00f  1
  68 -5.6090271e+39 5.55e-17 4.33e+20  -1.0 9.90e+16   3.6 1.00e+00 1.00e+00f  1
  69 -1.3930008e+40 5.55e-17 6.83e+20  -1.0 9.66e+17   3.2 4.23e-02 2.56e-01f  1
iter    objective    inf_pr   inf_du lg(mu)  ||d||  lg(rg) alpha_du alpha_pr  ls
  70 -2.0794185e+40 2.78e-17 8.34e+20  -1.0 2.37e+17   3.6 1.00e+00 6.33e-01f  1
  71 -3.0711928e+40 5.55e-17 1.01e+21  -1.0 2.91e+18   3.1 4.72e-01 6.11e-02f  1
  72 -4.8034519e+40 5.55e-17 1.27e+21  -1.0 4.14e+17   3.5 1.09e-01 6.07e-01f  1
  73 -8.1490254e+40 8.93e-17 1.65e+21  -1.0 8.89e+18   3.1 1.45e-02 4.27e-02f  1
  74 -1.0908089e+41 1.67e-16 1.91e+21  -1.0 8.01e+17   3.5 4.08e-02 3.21e-01f  1
  75 -5.6619753e+42 2.78e-16 1.38e+22  -1.0 1.31e+20   3.0 5.62e-03 8.98e-02f  1
  76 -6.3462147e+42 2.78e-16 1.46e+22  -1.0 8.00e+18   3.4 1.22e-01 1.00e-01f  1
  77 -6.3473552e+42 1.11e-16 1.46e+22  -1.0 2.32e+18   3.9 1.17e-02 5.58e-04f  1
  78 -6.3844623e+42 2.22e-16 1.46e+22  -1.0 1.03e+19   3.4 1.12e-03 4.10e-03f  1
  79 -6.3851634e+42 3.33e-16 1.46e+22  -1.0 2.68e+18   3.8 5.57e-02 2.97e-04f  1
iter    objective    inf_pr   inf_du lg(mu)  ||d||  lg(rg) alpha_du alpha_pr  ls
  80 -6.3893921e+42 2.78e-16 1.46e+22  -1.0 1.27e+19   3.3 6.06e-03 3.77e-04f  1
  81 -6.4680898e+42 2.50e-16 1.47e+22  -1.0 3.08e+18   3.8 1.40e-04 2.89e-02f  1
  82 -6.5634783e+42 2.22e-16 1.48e+22  -1.0 1.62e+19   3.3 2.33e-04 6.61e-03f  1
  83 -6.5986221e+42 1.11e-16 1.49e+22  -1.0 3.61e+18   3.7 1.12e-01 1.09e-02f  1
  84 -6.9220408e+42 8.85e-17 1.52e+22  -1.0 2.14e+19   3.2 2.08e-04 1.67e-02f  1
  85 -7.0001623e+42 2.36e-16 1.53e+22  -1.0 4.30e+18   3.7 6.23e-03 1.97e-02f  1
  86 -7.0988267e+42 1.67e-16 1.54e+22  -1.0 3.02e+19   3.2 7.86e-05 3.52e-03f  1
  87 -7.1000867e+42 1.53e-16 1.54e+22  -1.0 5.08e+18   3.6 8.28e-04 2.67e-04f  1
  88 -8.3931520e+42 1.67e-16 1.68e+22  -1.0 4.57e+19   3.1 4.21e-02 2.92e-02f  1
  89 -1.0855544e+43 9.71e-17 1.91e+22  -1.0 6.49e+18   3.6 4.70e-03 3.51e-01f  1
iter    objective    inf_pr   inf_du lg(mu)  ||d||  lg(rg) alpha_du alpha_pr  ls
  90 -1.0969346e+43 1.11e-16 1.92e+22  -1.0 1.01e+20   3.1 7.69e-04 9.73e-04f  1
  91 -1.1004742e+43 1.11e-16 1.92e+22  -1.0 8.77e+18   3.5 4.54e-04 3.49e-03f  1
  92 -1.1184696e+43 1.11e-16 1.94e+22  -1.0 3.50e+20   3.0 1.02e-02 4.43e-04f  1
  93 -1.2837874e+43 6.77e-17 2.07e+22  -1.0 1.06e+19   3.5 1.17e-01 1.29e-01f  1
  94 -1.2881015e+43 1.87e-16 2.08e+22  -1.0 3.16e+18   3.9 2.58e-03 1.09e-02f  1
  95 -1.2930241e+43 9.71e-17 2.08e+22  -1.0 1.37e+19   3.4 3.65e-03 2.86e-03f  1
  96 -1.2930600e+43 1.39e-16 2.08e+22  -1.0 3.64e+18   3.8 6.64e-03 7.85e-05f  1
  97 -1.3014807e+43 1.49e-16 2.09e+22  -1.0 1.69e+19   3.4 1.64e-03 3.97e-03f  1
  98 -1.3018128e+43 1.67e-16 2.09e+22  -1.0 4.20e+18   3.8 7.56e-02 6.28e-04f  1
  99 -1.3546794e+43 1.39e-16 2.13e+22  -1.0 2.12e+19   3.3 1.20e-02 1.96e-02f  1
iter    objective    inf_pr   inf_du lg(mu)  ||d||  lg(rg) alpha_du alpha_pr  ls
 100 -1.3587022e+43 1.67e-16 2.13e+22  -1.0 4.94e+18   3.7 1.41e-04 6.33e-03f  1
 101 -1.3952698e+43 1.39e-16 2.16e+22  -1.0 2.80e+19   3.2 2.61e-02 1.01e-02f  1
 102 -1.6418443e+43 2.22e-16 2.34e+22  -1.0 5.82e+18   3.7 5.91e-02 3.12e-01f  1
 103 -1.6464765e+43 1.11e-16 2.35e+22  -1.0 4.14e+19   3.2 7.63e-03 7.90e-04f  1
 104 -1.6595857e+43 1.67e-16 2.36e+22  -1.0 7.36e+18   3.6 1.29e-02 1.26e-02f  1
 105 -1.6620613e+43 1.39e-16 2.36e+22  -1.0 6.03e+19   3.1 4.33e-03 2.88e-04f  1
 106 -1.6624917e+43 8.33e-17 2.36e+22  -1.0 8.66e+18   3.6 5.94e-03 3.49e-04f  1
 107 -3.5226815e+43 1.94e-16 3.43e+22  -1.0 1.00e+20   3.1 3.23e-03 1.06e-01f  1
 108 -3.5379767e+43 1.39e-16 3.44e+22  -1.0 1.49e+19   3.5 1.49e-03 4.96e-03f  1
 109 -3.5388172e+43 1.67e-16 3.44e+22  -1.0 3.56e+20   3.0 8.11e-04 1.14e-05f  1
iter    objective    inf_pr   inf_du lg(mu)  ||d||  lg(rg) alpha_du alpha_pr  ls
 110 -3.5514731e+43 1.39e-16 3.45e+22  -1.0 1.77e+19   3.5 1.05e-02 3.43e-03f  1
 111 -3.5515931e+43 2.78e-16 3.45e+22  -1.0 5.03e+18   3.9 9.83e-04 1.15e-04f  1
 112 -3.5604252e+43 1.94e-16 3.45e+22  -1.0 2.14e+19   3.4 9.32e-04 1.99e-03f  1
 113 -3.5618469e+43 3.05e-16 3.45e+22  -1.0 5.77e+18   3.8 1.25e-04 1.18e-03f  1
 114 -3.5645563e+43 3.89e-16 3.45e+22  -1.0 2.61e+19   3.4 9.20e-04 4.98e-04f  1
 115 -3.5669155e+43 3.05e-16 3.46e+22  -1.0 6.63e+18   3.8 1.07e-04 1.71e-03f  1
 116 -3.5718055e+43 2.50e-16 3.46e+22  -1.0 3.25e+19   3.3 7.18e-05 7.21e-04f  1
 117 -3.5718444e+43 4.16e-16 3.46e+22  -1.0 7.66e+18   3.7 1.05e-03 2.44e-05f  1
 118 -3.5720082e+43 2.50e-16 3.46e+22  -1.0 4.15e+19   3.3 2.29e-03 1.89e-05f  1
 119 -3.5938848e+43 3.61e-16 3.47e+22  -1.0 8.86e+18   3.7 1.42e-03 1.18e-02f  1
iter    objective    inf_pr   inf_du lg(mu)  ||d||  lg(rg) alpha_du alpha_pr  ls
 120 -3.6600757e+43 2.78e-16 3.50e+22  -1.0 5.53e+19   3.2 7.16e-04 5.70e-03f  1
 121 -3.6612157e+43 2.22e-16 3.50e+22  -1.0 1.04e+19   3.6 2.68e-04 5.18e-04f  1
 122 -3.8285933e+43 3.05e-16 3.58e+22  -1.0 7.85e+19   3.2 6.03e-03 9.98e-03f  1
 123 -3.8300217e+43 3.89e-16 3.58e+22  -1.0 1.25e+19   3.6 5.24e-03 5.30e-04f  1
 124 -3.8306751e+43 2.50e-16 3.58e+22  -1.0 1.26e+20   3.1 3.35e-04 2.40e-05f  1
 125 -3.8398475e+43 3.33e-16 3.59e+22  -1.0 1.47e+19   3.5 3.78e-06 2.89e-03f  1
 126 -3.9310099e+43 3.89e-16 3.63e+22  -1.0 2.56e+20   3.1 1.82e-03 1.64e-03f  1
 127 -4.3572303e+43 2.22e-16 3.82e+22  -1.0 1.76e+19   3.5 1.84e-01 1.08e-01f  1
 128 -8.6545002e+43 1.39e-16 5.38e+22  -1.0 3.06e+21   3.0 1.80e-03 5.06e-03f  1
 129 -8.6565983e+43 3.33e-16 5.38e+22  -1.0 3.14e+19   3.4 4.95e-04 2.06e-04f  1
iter    objective    inf_pr   inf_du lg(mu)  ||d||  lg(rg) alpha_du alpha_pr  ls
 130 -8.6612149e+43 3.61e-16 5.38e+22  -1.0 8.60e+18   3.9 3.14e-03 1.65e-03f  1
 131 -9.0211744e+43 3.05e-16 5.50e+22  -1.0 3.81e+19   3.4 1.10e-03 2.88e-02f  1
 132 -9.2964343e+43 2.50e-16 5.58e+22  -1.0 1.01e+19   3.8 1.07e-02 8.18e-02f  1
 133 -9.2994834e+43 2.78e-16 5.58e+22  -1.0 4.88e+19   3.3 6.05e-04 1.86e-04f  1
 134 -9.9227030e+43 1.94e-16 5.76e+22  -1.0 1.18e+19   3.8 1.89e-01 1.55e-01f  1
 135 -9.9339464e+43 2.78e-16 5.77e+22  -1.0 6.37e+19   3.3 1.11e-03 5.08e-04f  1
 136 -9.9381867e+43 1.94e-16 5.77e+22  -1.0 1.41e+19   3.7 1.42e-03 8.66e-04f  1
 137 -9.9393247e+43 3.05e-16 5.77e+22  -1.0 8.34e+19   3.2 1.06e-03 3.92e-05f  1
 138 -9.9458539e+43 2.50e-16 5.77e+22  -1.0 1.63e+19   3.7 3.27e-04 1.15e-03f  1
 139 -9.9468565e+43 2.22e-16 5.77e+22  -1.0 1.15e+20   3.2 3.88e-04 2.51e-05f  1
iter    objective    inf_pr   inf_du lg(mu)  ||d||  lg(rg) alpha_du alpha_pr  ls
 140 -9.9494873e+43 2.22e-16 5.77e+22  -1.0 1.91e+19   3.6 5.00e-04 3.96e-04f  1
 141 -9.9577507e+43 2.50e-16 5.77e+22  -1.0 1.72e+20   3.1 2.82e-04 1.38e-04f  1
 142 -9.9590513e+43 1.39e-16 5.77e+22  -1.0 2.24e+19   3.6 9.23e-06 1.67e-04f  1
 143 -1.0017256e+44 1.94e-16 5.79e+22  -1.0 3.11e+20   3.1 5.42e-04 5.36e-04f  1
 144 -1.0022315e+44 1.67e-16 5.79e+22  -1.0 2.66e+19   3.5 5.48e-05 5.44e-04f  1
 145 -1.0231303e+44 1.11e-16 5.85e+22  -1.0 1.10e+21   3.0 1.49e-03 5.41e-04f  1
 146 -1.0231713e+44 2.50e-16 5.85e+22  -1.0 3.21e+19   3.5 2.34e-04 3.62e-05f  1
 147 -1.0236723e+44 1.94e-16 5.85e+22  -1.0 8.94e+18   3.9 1.32e-04 1.59e-03f  1
 148 -1.0237088e+44 1.67e-16 5.85e+22  -1.0 3.88e+19   3.4 1.19e-03 2.66e-05f  1
 149 -1.0238212e+44 9.37e-17 5.85e+22  -1.0 1.03e+19   3.8 1.94e-04 3.10e-04f  1
iter    objective    inf_pr   inf_du lg(mu)  ||d||  lg(rg) alpha_du alpha_pr  ls
 150 -1.0371206e+44 1.28e-16 5.89e+22  -1.0 4.76e+19   3.3 1.92e-03 7.88e-03f  1
 151 -1.0371655e+44 1.11e-16 5.89e+22  -1.0 1.19e+19   3.8 6.13e-03 1.06e-04f  1
 152 -1.0402413e+44 8.50e-17 5.90e+22  -1.0 6.01e+19   3.3 3.04e-04 1.44e-03f  1
 153 -1.0408504e+44 1.01e-16 5.90e+22  -1.0 1.37e+19   3.7 3.33e-03 1.25e-03f  1
 154 -1.0442218e+44 1.39e-16 5.91e+22  -1.0 7.78e+19   3.2 1.44e-03 1.22e-03f  1
 155 -1.0482050e+44 2.50e-16 5.92e+22  -1.0 1.60e+19   3.7 6.05e-03 6.99e-03f  1
 156 -1.0483903e+44 1.67e-16 5.92e+22  -1.0 1.05e+20   3.2 3.52e-02 4.92e-05f  1
 157 -1.0485352e+44 1.67e-16 5.92e+22  -1.0 1.86e+19   3.6 6.28e-04 2.18e-04f  1
 158 -1.0489705e+44 1.39e-16 5.93e+22  -1.0 1.53e+20   3.1 2.92e-04 7.97e-05f  1
 159 -1.0600723e+44 2.78e-16 5.96e+22  -1.0 2.18e+19   3.6 1.67e-03 1.42e-02f  1
iter    objective    inf_pr   inf_du lg(mu)  ||d||  lg(rg) alpha_du alpha_pr  ls
 160 -1.0777858e+44 2.64e-16 6.01e+22  -1.0 2.56e+20   3.1 2.69e-05 1.92e-03f  1
 161 -1.0818328e+44 3.47e-16 6.02e+22  -1.0 2.61e+19   3.5 4.04e-03 4.28e-03f  1
 162 -1.0850880e+44 2.50e-16 6.03e+22  -1.0 6.37e+20   3.0 6.91e-05 1.41e-04f  1
 163 -1.0920075e+44 2.84e-16 6.05e+22  -1.0 3.12e+19   3.5 4.78e-06 6.10e-03f  1
 164 -1.1189235e+44 2.46e-16 6.12e+22  -1.0 8.84e+18   3.9 2.79e-02 8.30e-02f  1
 165 -1.1190483e+44 2.60e-16 6.12e+22  -1.0 3.81e+19   3.4 1.25e-03 8.88e-05f  1
 166 -1.1216091e+44 2.41e-16 6.13e+22  -1.0 1.03e+19   3.8 7.19e-02 6.76e-03f  1
 167 -1.1218451e+44 2.69e-16 6.13e+22  -1.0 4.65e+19   3.4 1.06e-04 1.37e-04f  1
 168 -1.1218669e+44 2.06e-16 6.13e+22  -1.0 1.18e+19   3.8 6.67e-04 5.01e-05f  1
 169 -1.1279551e+44 2.79e-16 6.15e+22  -1.0 5.79e+19   3.3 1.04e-03 2.84e-03f  1
iter    objective    inf_pr   inf_du lg(mu)  ||d||  lg(rg) alpha_du alpha_pr  ls
 170 -1.1284557e+44 2.74e-16 6.15e+22  -1.0 1.36e+19   3.7 2.83e-02 9.90e-04f  1
 171 -1.1299347e+44 2.48e-16 6.15e+22  -1.0 7.42e+19   3.3 5.44e-03 5.38e-04f  1
 172 -1.1338909e+44 2.39e-16 6.16e+22  -1.0 1.58e+19   3.7 2.50e-02 6.74e-03f  1
 173 -1.1508944e+44 2.60e-16 6.21e+22  -1.0 9.87e+19   3.2 1.40e-02 4.62e-03f  1
 174 -1.1513800e+44 2.36e-16 6.21e+22  -1.0 1.85e+19   3.6 2.92e-04 6.99e-04f  1
 175 -1.1980931e+44 2.66e-16 6.33e+22  -1.0 1.40e+20   3.2 3.77e-02 8.81e-03f  1
 176 -1.1981011e+44 2.79e-16 6.33e+22  -1.0 2.21e+19   3.6 2.21e-05 9.50e-06f  1
 177 -1.2178987e+44 2.67e-16 6.39e+22  -1.0 2.25e+20   3.1 5.42e-06 2.29e-03f  1
 178 -1.2193288e+44 2.67e-16 6.39e+22  -1.0 2.62e+19   3.5 2.65e-05 1.41e-03f  1
 179 -1.2194122e+44 2.74e-16 6.39e+22  -1.0 4.63e+20   3.1 6.35e-05 4.66e-06f  1
iter    objective    inf_pr   inf_du lg(mu)  ||d||  lg(rg) alpha_du alpha_pr  ls
 180 -1.2197540e+44 2.57e-16 6.39e+22  -1.0 3.12e+19   3.5 2.24e-03 2.85e-04f  1
 181 -1.2232348e+44 2.74e-16 6.40e+22  -1.0 6.17e+21   3.0 2.87e-04 1.46e-05f  1
 182 -1.2235422e+44 2.67e-16 6.40e+22  -1.0 3.74e+19   3.4 1.37e-04 2.13e-04f  1
 183 -1.2243295e+44 2.64e-16 6.40e+22  -1.0 1.03e+19   3.9 1.34e-02 1.99e-03f  1
 184 -1.2269533e+44 2.71e-16 6.41e+22  -1.0 4.55e+19   3.4 2.14e-04 1.49e-03f  1
 185 -1.2269741e+44 2.64e-16 6.41e+22  -1.0 1.18e+19   3.8 1.60e-03 4.57e-05f  1
 186 -1.2280451e+44 2.64e-16 6.41e+22  -1.0 5.62e+19   3.3 3.09e-04 4.92e-04f  1
 187 -1.2280700e+44 2.64e-16 6.41e+22  -1.0 1.36e+19   3.8 8.97e-06 4.75e-05f  1
 188 -1.2379009e+44 2.66e-16 6.44e+22  -1.0 7.12e+19   3.3 5.40e-05 3.56e-03f  1
 189 -1.2381704e+44 2.55e-16 6.44e+22  -1.0 1.58e+19   3.7 1.70e-04 4.40e-04f  1
iter    objective    inf_pr   inf_du lg(mu)  ||d||  lg(rg) alpha_du alpha_pr  ls
 190 -1.2434369e+44 2.64e-16 6.45e+22  -1.0 9.35e+19   3.2 1.04e-04 1.45e-03f  1
 191 -1.2434955e+44 2.53e-16 6.45e+22  -1.0 1.83e+19   3.7 3.54e-04 8.22e-05f  1
 192 -1.2440185e+44 2.53e-16 6.45e+22  -1.0 1.29e+20   3.2 2.81e-05 1.04e-04f  1
 193 -1.2440283e+44 2.01e-16 6.45e+22  -1.0 2.14e+19   3.6 1.24e-04 1.18e-05f  1
 194 -1.2450593e+44 2.46e-16 6.46e+22  -1.0 1.94e+20   3.1 8.81e-04 1.36e-04f  1
 195 -1.4925745e+44 1.80e-16 7.07e+22  -1.0 2.51e+19   3.6 2.96e-02 2.41e-01f  1
 196 -1.5001223e+44 1.87e-16 7.09e+22  -1.0 3.86e+20   3.1 4.97e-04 4.58e-04f  1
 197 -1.5001575e+44 1.67e-16 7.09e+22  -1.0 3.26e+19   3.5 1.28e-03 2.52e-05f  1
 198 -1.5022686e+44 1.67e-16 7.09e+22  -1.0 1.40e+21   3.0 9.83e-05 3.52e-05f  1
 199 -1.5027646e+44 1.25e-16 7.09e+22  -1.0 3.90e+19   3.5 1.45e-03 2.97e-04f  1
iter    objective    inf_pr   inf_du lg(mu)  ||d||  lg(rg) alpha_du alpha_pr  ls
 200 -1.5029636e+44 2.08e-16 7.09e+22  -1.0 1.09e+19   3.9 4.74e-05 4.28e-04f  1
 201 -1.5029808e+44 2.22e-16 7.09e+22  -1.0 4.72e+19   3.4 6.60e-04 8.49e-06f  1
 202 -1.5035376e+44 1.60e-16 7.10e+22  -1.0 1.25e+19   3.8 2.73e-05 1.04e-03f  1
 203 -1.5035594e+44 1.94e-16 7.10e+22  -1.0 5.80e+19   3.3 2.02e-04 8.80e-06f  1
 204 -1.5044321e+44 1.80e-16 7.10e+22  -1.0 1.43e+19   3.8 1.09e-04 1.42e-03f  1
 205 -1.5123238e+44 2.01e-16 7.12e+22  -1.0 7.27e+19   3.3 9.90e-06 2.53e-03f  1
 206 -1.5124882e+44 2.22e-16 7.12e+22  -1.0 1.66e+19   3.7 5.20e-03 2.31e-04f  1
 207 -1.5131890e+44 2.36e-16 7.12e+22  -1.0 9.42e+19   3.2 6.87e-04 1.73e-04f  1
 208 -1.5147282e+44 2.78e-16 7.12e+22  -1.0 1.93e+19   3.7 4.73e-05 1.86e-03f  1
 209 -1.5162126e+44 2.36e-16 7.12e+22  -1.0 1.27e+20   3.2 4.71e-04 2.71e-04f  1
iter    objective    inf_pr   inf_du lg(mu)  ||d||  lg(rg) alpha_du alpha_pr  ls
 210 -1.5172767e+44 2.22e-16 7.13e+22  -1.0 2.24e+19   3.6 6.56e-04 1.10e-03f  1
 211 -1.5173251e+44 2.57e-16 7.13e+22  -1.0 1.85e+20   3.1 9.60e-06 6.07e-06f  1
 212 -1.5173266e+44 2.36e-16 7.13e+22  -1.0 2.63e+19   3.6 1.83e-06 1.35e-06f  1
 213 -1.5324641e+44 2.43e-16 7.16e+22  -1.0 3.10e+20   3.1 9.92e-05 1.13e-03f  1
 214 -1.5384601e+44 2.64e-16 7.18e+22  -1.0 3.12e+19   3.5 6.30e-04 4.44e-03f  1
 215 -1.5394765e+44 2.78e-16 7.18e+22  -1.0 7.79e+20   3.0 9.09e-04 3.01e-05f  1
 216 -1.5416324e+44 2.78e-16 7.18e+22  -1.0 3.72e+19   3.5 4.03e-03 1.34e-03f  1
 217 -1.5419295e+44 3.33e-16 7.19e+22  -1.0 1.05e+19   3.9 1.39e-04 6.51e-04f  1
 218 -1.5419830e+44 2.64e-16 7.19e+22  -1.0 4.48e+19   3.4 2.58e-05 2.75e-05f  1
 219 -1.5420836e+44 2.50e-16 7.19e+22  -1.0 1.21e+19   3.8 1.41e-03 1.92e-04f  1
iter    objective    inf_pr   inf_du lg(mu)  ||d||  lg(rg) alpha_du alpha_pr  ls
 220 -1.5516592e+44 3.05e-16 7.21e+22  -1.0 5.48e+19   3.4 2.26e-03 4.03e-03f  1
 221 -1.5517048e+44 3.19e-16 7.21e+22  -1.0 1.39e+19   3.8 2.34e-04 7.54e-05f  1
 222 -1.5525778e+44 3.05e-16 7.21e+22  -1.0 6.84e+19   3.3 5.68e-05 2.94e-04f  1
 223 -1.5551507e+44 2.64e-16 7.22e+22  -1.0 1.60e+19   3.7 1.95e-03 3.69e-03f  1
 224 -1.5552958e+44 2.22e-16 7.22e+22  -1.0 8.75e+19   3.3 2.68e-05 3.81e-05f  1
 225 -1.5554065e+44 2.50e-16 7.22e+22  -1.0 1.86e+19   3.7 4.79e-05 1.37e-04f  1
 226 -1.5554209e+44 2.78e-16 7.22e+22  -1.0 1.16e+20   3.2 3.09e-03 2.83e-06f  1
 227 -1.5554494e+44 2.64e-16 7.22e+22  -1.0 2.16e+19   3.6 4.73e-04 3.03e-05f  1
 228 -2.1022566e+44 2.78e-16 8.39e+22  -1.0 1.64e+20   3.2 2.23e-03 7.08e-02f  1
 229 -2.1440564e+44 2.78e-16 8.47e+22  -1.0 2.94e+19   3.6 2.04e-03 2.80e-02f  1
iter    objective    inf_pr   inf_du lg(mu)  ||d||  lg(rg) alpha_du alpha_pr  ls
 230 -2.1843128e+44 2.22e-16 8.55e+22  -1.0 3.04e+20   3.1 9.10e-04 2.58e-03f  1
 231 -2.1875928e+44 2.22e-16 8.56e+22  -1.0 3.53e+19   3.5 6.58e-05 1.80e-03f  1
 232 -2.1968889e+44 2.28e-16 8.58e+22  -1.0 6.32e+20   3.1 6.09e-06 2.85e-04f  1
 233 -2.1974547e+44 2.50e-16 8.58e+22  -1.0 4.20e+19   3.5 4.45e-04 2.61e-04f  1
 234 -2.2193064e+44 2.46e-16 8.62e+22  -1.0 1.04e+22   3.0 9.73e-04 4.04e-05f  1
 235 -2.2206510e+44 2.71e-16 8.62e+22  -1.0 5.06e+19   3.4 1.03e-04 5.11e-04f  1
 236 -2.2225391e+44 2.78e-16 8.63e+22  -1.0 1.38e+19   3.9 3.29e-05 2.62e-03f  1
 237 -2.2243716e+44 2.78e-16 8.63e+22  -1.0 6.15e+19   3.4 1.51e-03 5.73e-04f  1
 238 -2.2363001e+44 3.26e-16 8.65e+22  -1.0 1.59e+19   3.8 2.47e-03 1.44e-02f  1
 239 -2.5004714e+44 2.43e-16 9.15e+22  -1.0 7.62e+19   3.3 2.96e-02 6.45e-02f  1
iter    objective    inf_pr   inf_du lg(mu)  ||d||  lg(rg) alpha_du alpha_pr  ls
 240 -2.5006586e+44 2.71e-16 9.15e+22  -1.0 1.94e+19   3.8 5.00e-04 1.75e-04f  1
 241 -2.5163293e+44 2.29e-16 9.18e+22  -1.0 1.02e+20   3.3 1.67e-03 2.78e-03f  1
 242 -2.5164412e+44 2.71e-16 9.18e+22  -1.0 2.25e+19   3.7 3.54e-03 8.97e-05f  1
 243 -2.5170392e+44 2.95e-16 9.18e+22  -1.0 1.34e+20   3.2 3.53e-05 8.06e-05f  1
 244 -2.5201926e+44 2.50e-16 9.19e+22  -1.0 2.62e+19   3.7 1.65e-03 2.18e-03f  1
 245 -2.5226321e+44 2.78e-16 9.19e+22  -1.0 1.85e+20   3.2 1.12e-05 2.38e-04f  1
 246 -2.5226466e+44 2.78e-16 9.19e+22  -1.0 3.06e+19   3.6 3.29e-05 8.61e-06f  1
 247 -2.5361853e+44 2.78e-16 9.21e+22  -1.0 2.79e+20   3.1 8.45e-05 8.74e-04f  1
 248 -2.5362676e+44 2.29e-16 9.21e+22  -1.0 3.60e+19   3.6 3.70e-06 4.12e-05f  1
 249 -2.5364952e+44 1.94e-16 9.22e+22  -1.0 5.11e+20   3.1 3.84e-07 8.02e-06f  1
iter    objective    inf_pr   inf_du lg(mu)  ||d||  lg(rg) alpha_du alpha_pr  ls
 250 -2.5365123e+44 2.22e-16 9.22e+22  -1.0 4.26e+19   3.5 9.92e-04 7.25e-06f  1
 251 -2.5410035e+44 2.22e-16 9.22e+22  -1.0 1.91e+21   3.0 2.08e-04 4.23e-05f  1
 252 -2.5444480e+44 2.17e-16 9.23e+22  -1.0 5.09e+19   3.5 5.48e-05 1.22e-03f  1
 253 -2.5485464e+44 1.73e-16 9.24e+22  -1.0 1.42e+19   3.9 1.01e-03 5.19e-03f  1
 254 -2.5511936e+44 1.99e-16 9.24e+22  -1.0 6.17e+19   3.4 2.09e-03 7.70e-04f  1
 255 -2.5512021e+44 2.39e-16 9.24e+22  -1.0 1.63e+19   3.8 8.43e-05 9.39e-06f  1
 256 -2.5618099e+44 2.24e-16 9.26e+22  -1.0 7.58e+19   3.3 6.59e-04 2.51e-03f  1
 257 -2.5619655e+44 2.22e-16 9.26e+22  -1.0 1.88e+19   3.8 9.55e-04 1.48e-04f  1
 258 -2.7570343e+44 2.78e-16 9.61e+22  -1.0 9.53e+19   3.3 1.93e-02 3.60e-02f  1
 259 -2.7580886e+44 2.78e-16 9.61e+22  -1.0 2.25e+19   3.7 1.17e-03 8.09e-04f  1
iter    objective    inf_pr   inf_du lg(mu)  ||d||  lg(rg) alpha_du alpha_pr  ls
 260 -2.7582351e+44 3.89e-16 9.61e+22  -1.0 1.28e+20   3.2 3.40e-06 1.98e-05f  1
 261 -2.7583176e+44 3.33e-16 9.61e+22  -1.0 2.61e+19   3.7 1.96e-05 5.47e-05f  1
 262 -2.7670076e+44 3.33e-16 9.63e+22  -1.0 1.73e+20   3.2 1.25e-03 8.67e-04f  1
 263 -2.7670188e+44 3.33e-16 9.63e+22  -1.0 3.04e+19   3.6 1.33e-05 6.36e-06f  1
 264 -2.7679110e+44 3.89e-16 9.63e+22  -1.0 2.52e+20   3.1 1.71e-05 6.10e-05f  1
 265 -2.7679316e+44 2.78e-16 9.63e+22  -1.0 3.56e+19   3.6 1.99e-03 9.94e-06f  1
 266 -2.8604872e+44 2.78e-16 9.79e+22  -1.0 4.24e+20   3.1 9.58e-05 3.73e-03f  1
 267 -2.8650698e+44 3.89e-16 9.79e+22  -1.0 4.28e+19   3.5 1.80e-04 1.82e-03f  1
 268 -2.8659412e+44 3.33e-16 9.80e+22  -1.0 1.09e+21   3.0 8.20e-05 1.35e-05f  1
 269 -2.8666940e+44 3.33e-16 9.80e+22  -1.0 5.10e+19   3.5 8.68e-04 2.50e-04f  1
iter    objective    inf_pr   inf_du lg(mu)  ||d||  lg(rg) alpha_du alpha_pr  ls
 270 -2.8684290e+44 3.89e-16 9.80e+22  -1.0 1.44e+19   3.9 5.75e-03 2.04e-03f  1
 271 -2.8745604e+44 3.33e-16 9.81e+22  -1.0 6.14e+19   3.4 8.11e-04 1.69e-03f  1
 272 -2.8859223e+44 2.78e-16 9.83e+22  -1.0 1.65e+19   3.8 1.57e-04 1.16e-02f  1
 273 -2.8878858e+44 3.33e-16 9.83e+22  -1.0 7.52e+19   3.4 2.20e-03 4.40e-04f  1
 274 -2.8990009e+44 2.78e-16 9.85e+22  -1.0 1.90e+19   3.8 5.33e-03 9.84e-03f  1
 275 -2.8991611e+44 2.22e-16 9.85e+22  -1.0 9.39e+19   3.3 4.39e-05 2.87e-05f  1
 276 -2.8992094e+44 2.78e-16 9.85e+22  -1.0 2.20e+19   3.7 1.85e-03 3.70e-05f  1
 277 -2.9275980e+44 2.78e-16 9.90e+22  -1.0 1.20e+20   3.3 1.11e-03 3.97e-03f  1
 278 -2.9277785e+44 3.89e-16 9.90e+22  -1.0 2.56e+19   3.7 3.47e-05 1.18e-04f  1
 279 -2.9291669e+44 2.78e-16 9.90e+22  -1.0 1.60e+20   3.2 2.29e-04 1.45e-04f  1
iter    objective    inf_pr   inf_du lg(mu)  ||d||  lg(rg) alpha_du alpha_pr  ls
 280 -2.9291942e+44 4.44e-16 9.90e+22  -1.0 2.97e+19   3.6 2.76e-04 1.54e-05f  1
 281 -2.9334070e+44 3.89e-16 9.91e+22  -1.0 2.27e+20   3.2 9.52e-05 3.11e-04f  1
 282 -2.9335851e+44 3.89e-16 9.91e+22  -1.0 3.48e+19   3.6 2.80e-06 8.56e-05f  1
 283 -2.9343916e+44 4.44e-16 9.91e+22  -1.0 3.59e+20   3.1 8.33e-05 3.76e-05f  1
 284 -2.9344296e+44 2.78e-16 9.91e+22  -1.0 4.10e+19   3.5 2.07e-05 1.55e-05f  1
 285 -2.9363171e+44 3.33e-16 9.92e+22  -1.0 7.45e+20   3.1 1.67e-05 4.24e-05f  1
 286 -2.9363929e+44 3.89e-16 9.92e+22  -1.0 4.87e+19   3.5 8.28e-05 2.60e-05f  1
 287 -4.8034323e+44 3.89e-16 1.27e+23  -1.0 1.63e+22   3.0 8.28e-05 1.69e-03f  1

Number of Iterations....: 287

                                   (scaled)                 (unscaled)
Objective...............:  -1.8646792238520992e+43   -4.8034323274352463e+44
Dual infeasibility......:   1.2681537693063788e+23    3.2667767912709250e+24
Constraint violation....:   3.8857805861880479e-16    3.8857805861880479e-16
Complementarity.........:   1.1785610667478083e-01    3.0359850935530219e+00
Overall NLP error.......:   1.2681537693063788e+23    3.2667767912709250e+24


Number of objective function evaluations             = 288
Number of objective gradient evaluations             = 288
Number of equality constraint evaluations            = 288
Number of inequality constraint evaluations          = 0
Number of equality constraint Jacobian evaluations   = 288
Number of inequality constraint Jacobian evaluations = 0
Number of Lagrangian Hessian evaluations             = 287
Total CPU secs in IPOPT (w/o function evaluations)   =      0.456
Total CPU secs in NLP function evaluations           =      0.115

EXIT: Iterates diverging; problem might be unbounded.

************************ CUTEst statistics ************************


 Package used            :  IPOPT
 Problem                 :  STATIC3   
 # variables             =             434
 # constraints           =              96
 # objective functions   =        0.5770000E+03
 # objective gradients   =        0.2890000E+03
 # objective Hessians    =        0.2880000E+03
 # Hessian-vector prdct  =        0.0000000E+00
 # constraints functions =        0.5780000E+03
 # constraints gradients =        0.2900000E+03
 # constraints Hessians  =        0.2880000E+03
 Exit code               =               4
 Final f                 =       -4.8034323274352463D+44
 Bounds feasibility      =        0.0000000000000000D+00
 Set up time             =            0.06 seconds
 Solve time              =            1.05 seconds


******************************************************************

